g3 0 1 0	# problem d5n8R2R6d01d05
 8 7 1 0 2	# vars, constraints, objectives, ranges, eqns
 4 1	# nonlinear constraints, objectives
 0 0	# network constraints: nonlinear, linear
 8 8 8	# nonlinear vars in constraints, objectives, both
 0 0 0 1	# linear network variables; functions; arith, flags
 0 0 0 0 0	# discrete variables: binary, integer, nonlinear (b,c,o)
 48 8	# nonzeros in Jacobian, gradients
 0 0	# max name lengths: constraints, variables
 0 0 0 0 0	# common exprs: b,c,o,c1,o1
b
0 0.34 2.31
0 0.64 2.46
0 0.47 2.8
0 0.11 2.51
0 0.18 2.41
0 0.05 2.37
0 0.38 2.79
0 0.87 2.47
r
2 55.501
2 255.783
2 1065.09
2 3251.47
4 7.35
4 19.59
2 44.978
C0
o0
o2
o2
n5.51
v3
v3
o2
o2
n2.37
v4
v7
C1
o54
13
o2
o2
n5.95
v3
v3
o2
o2
n2.47
v4
v7
o2
o2
o2
n6.13
v0
v4
v4
o2
o2
o2
n2.6
v0
v4
v7
o2
o2
o2
n7.75
v0
v6
v7
o2
o2
o2
n8.98
v1
v1
v2
o2
o2
o2
n6.37
v1
v1
v3
o2
o2
o2
n5.65
v1
v3
v5
o2
o2
o2
n4.92
v2
v2
v7
o2
o2
o2
n8.87
v2
v5
v6
o16
o2
o2
o2
n8.36
v3
v4
v7
o16
o2
o2
o2
n1.4
v4
v4
v4
o2
o2
o2
n4.89
v6
v6
v6
C2
o54
53
o2
o2
n2.54
v3
v3
o16
o2
o2
n6.8
v4
v7
o2
o2
o2
n8.06
v0
v4
v4
o2
o2
o2
n1.79
v0
v4
v7
o2
o2
o2
n0.28
v0
v6
v7
o2
o2
o2
n5.64
v1
v1
v2
o2
o2
o2
n0.8
v1
v1
v3
o2
o2
o2
n2.23
v1
v3
v5
o2
o2
o2
n9.7
v2
v2
v7
o2
o2
o2
n8.74
v2
v5
v6
o2
o2
o2
n0.02
v3
v4
v7
o2
o2
o2
n8.64
v4
v4
v4
o2
o2
o2
n7.14
v6
v6
v6
o2
o2
o2
o2
n8.41
v0
v0
v1
v6
o2
o2
o2
o2
n2.07
v0
v0
v2
v6
o2
o2
o2
o2
n9.69
v0
v0
v3
v7
o2
o2
o2
o2
n2.72
v0
v1
v2
v3
o2
o2
o2
o2
n3.2
v0
v1
v2
v6
o2
o2
o2
o2
n2.2
v0
v2
v2
v4
o2
o2
o2
o2
n6.21
v0
v2
v3
v5
o2
o2
o2
o2
n8.3
v0
v2
v3
v6
o2
o2
o2
o2
n9.99
v0
v3
v3
v5
o2
o2
o2
o2
n3.09
v0
v3
v3
v6
o2
o2
o2
o2
n8.86
v0
v3
v5
v7
o2
o2
o2
o2
n6.77
v0
v4
v6
v6
o2
o2
o2
o2
n7.34
v0
v4
v6
v7
o2
o2
o2
o2
n4.83
v0
v5
v5
v7
o16
o2
o2
o2
o2
n7.08
v1
v1
v2
v5
o2
o2
o2
o2
n2.54
v1
v1
v2
v7
o2
o2
o2
o2
n10
v1
v1
v5
v6
o2
o2
o2
o2
n5.96
v1
v2
v2
v4
o2
o2
o2
o2
n9.28
v1
v2
v4
v5
o2
o2
o2
o2
n3.31
v1
v3
v3
v4
o2
o2
o2
o2
n4.77
v1
v3
v4
v6
o2
o2
o2
o2
n5.95
v1
v3
v6
v7
o2
o2
o2
o2
n4.31
v1
v4
v5
v5
o2
o2
o2
o2
n3.04
v1
v5
v5
v6
o2
o2
o2
o2
n7.58
v2
v2
v2
v7
o2
o2
o2
o2
n8.75
v2
v2
v3
v3
o2
o2
o2
o2
n4.1
v2
v3
v3
v5
o2
o2
o2
o2
n6.28
v2
v3
v5
v7
o2
o2
o2
o2
n1.78
v2
v3
v6
v7
o2
o2
o2
o2
n7.7
v3
v3
v3
v3
o2
o2
o2
o2
n7.69
v3
v4
v4
v4
o2
o2
o2
o2
n3.61
v3
v4
v4
v6
o2
o2
o2
o2
n7.71
v3
v7
v7
v7
o2
o2
o2
o2
n1.7
v4
v4
v4
v4
o2
o2
o2
o2
n6.34
v4
v4
v4
v5
o2
o2
o2
o2
n8.42
v4
v4
v5
v6
o2
o2
o2
o2
n3.55
v4
v5
v5
v5
o2
o2
o2
o2
n2.54
v4
v5
v6
v6
o2
o2
o2
o2
n0.02
v4
v7
v7
v7
o2
o2
o2
o2
n4.95
v5
v6
v6
v6
C3
o54
128
o2
o2
n1.92
v3
v3
o2
o2
n7.74
v4
v7
o2
o2
o2
n1.9
v0
v4
v4
o2
o2
o2
n2.5
v0
v4
v7
o2
o2
o2
n4.37
v0
v6
v7
o2
o2
o2
n0.5
v1
v1
v2
o2
o2
o2
n5.1
v1
v1
v3
o2
o2
o2
n4.78
v1
v3
v5
o2
o2
o2
n1.18
v2
v2
v7
o2
o2
o2
n8.64
v2
v5
v6
o2
o2
o2
n6.82
v3
v4
v7
o16
o2
o2
o2
n9.99
v4
v4
v4
o2
o2
o2
n4.7
v6
v6
v6
o2
o2
o2
o2
n6.46
v0
v0
v1
v6
o2
o2
o2
o2
n4.61
v0
v0
v2
v6
o2
o2
o2
o2
n5.41
v0
v0
v3
v7
o2
o2
o2
o2
n5.83
v0
v1
v2
v3
o2
o2
o2
o2
n7.84
v0
v1
v2
v6
o16
o2
o2
o2
o2
n4.83
v0
v2
v2
v4
o16
o2
o2
o2
o2
n0.26
v0
v2
v3
v5
o2
o2
o2
o2
n4.88
v0
v2
v3
v6
o2
o2
o2
o2
n3.67
v0
v3
v3
v5
o2
o2
o2
o2
n9.1
v0
v3
v3
v6
o2
o2
o2
o2
n3.61
v0
v3
v5
v7
o2
o2
o2
o2
n3.59
v0
v4
v6
v6
o2
o2
o2
o2
n0.4
v0
v4
v6
v7
o2
o2
o2
o2
n2.01
v0
v5
v5
v7
o2
o2
o2
o2
n3.66
v1
v1
v2
v5
o2
o2
o2
o2
n8.49
v1
v1
v2
v7
o2
o2
o2
o2
n0.01
v1
v1
v5
v6
o2
o2
o2
o2
n0.05
v1
v2
v2
v4
o2
o2
o2
o2
n8.29
v1
v2
v4
v5
o2
o2
o2
o2
n5.46
v1
v3
v3
v4
o2
o2
o2
o2
n1.08
v1
v3
v4
v6
o2
o2
o2
o2
n1.8
v1
v3
v6
v7
o16
o2
o2
o2
o2
n6.77
v1
v4
v5
v5
o2
o2
o2
o2
n5.54
v1
v5
v5
v6
o16
o2
o2
o2
o2
n1.19
v2
v2
v2
v7
o2
o2
o2
o2
n9.41
v2
v2
v3
v3
o2
o2
o2
o2
n2.8
v2
v3
v3
v5
o2
o2
o2
o2
n2.01
v2
v3
v5
v7
o2
o2
o2
o2
n0.58
v2
v3
v6
v7
o16
o2
o2
o2
o2
n1.26
v3
v3
v3
v3
o2
o2
o2
o2
n8.72
v3
v4
v4
v4
o2
o2
o2
o2
n8.71
v3
v4
v4
v6
o2
o2
o2
o2
n7
v3
v7
v7
v7
o2
o2
o2
o2
n5.91
v4
v4
v4
v4
o2
o2
o2
o2
n1.1
v4
v4
v4
v5
o2
o2
o2
o2
n9.61
v4
v4
v5
v6
o16
o2
o2
o2
o2
n1.84
v4
v5
v5
v5
o2
o2
o2
o2
n7.3
v4
v5
v6
v6
o2
o2
o2
o2
n7.4
v4
v7
v7
v7
o2
o2
o2
o2
n9.62
v5
v6
v6
v6
o2
o2
o2
o2
o2
n7.54
v0
v0
v0
v0
v1
o2
o2
o2
o2
o2
n1.22
v0
v0
v0
v6
v7
o16
o2
o2
o2
o2
o2
n4.05
v0
v0
v1
v4
v4
o2
o2
o2
o2
o2
n6.67
v0
v0
v1
v4
v7
o2
o2
o2
o2
o2
n6.22
v0
v0
v1
v5
v7
o2
o2
o2
o2
o2
n2.95
v0
v0
v1
v7
v7
o2
o2
o2
o2
o2
n5.7
v0
v0
v2
v2
v2
o2
o2
o2
o2
o2
n5.05
v0
v0
v2
v3
v3
o2
o2
o2
o2
o2
n9.53
v0
v0
v2
v3
v7
o2
o2
o2
o2
o2
n6.28
v0
v0
v4
v5
v7
o2
o2
o2
o2
o2
n5.67
v0
v0
v4
v6
v6
o2
o2
o2
o2
o2
n9.92
v0
v1
v1
v2
v5
o2
o2
o2
o2
o2
n9.82
v0
v1
v1
v4
v6
o2
o2
o2
o2
o2
n3.62
v0
v1
v1
v4
v7
o2
o2
o2
o2
o2
n7.8
v0
v1
v2
v3
v4
o2
o2
o2
o2
o2
n3.21
v0
v1
v2
v6
v6
o2
o2
o2
o2
o2
n2.5
v0
v1
v2
v6
v7
o2
o2
o2
o2
o2
n7.51
v0
v1
v4
v4
v5
o2
o2
o2
o2
o2
n9.37
v0
v2
v2
v2
v5
o2
o2
o2
o2
o2
n0.62
v0
v2
v3
v3
v5
o2
o2
o2
o2
o2
n9.67
v0
v2
v4
v4
v4
o2
o2
o2
o2
o2
n3.3
v0
v2
v4
v4
v7
o2
o2
o2
o2
o2
n5.41
v0
v3
v4
v4
v6
o2
o2
o2
o2
o2
n9.99
v0
v3
v6
v6
v7
o2
o2
o2
o2
o2
n5.05
v0
v4
v4
v4
v5
o2
o2
o2
o2
o2
n3.07
v0
v4
v4
v4
v6
o2
o2
o2
o2
o2
n4.19
v1
v1
v1
v1
v1
o2
o2
o2
o2
o2
n0.84
v1
v1
v1
v1
v5
o2
o2
o2
o2
o2
n0.04
v1
v1
v1
v1
v6
o2
o2
o2
o2
o2
n0.87
v1
v1
v1
v2
v2
o2
o2
o2
o2
o2
n3.98
v1
v1
v1
v3
v6
o2
o2
o2
o2
o2
n5.21
v1
v1
v1
v3
v7
o2
o2
o2
o2
o2
n1.14
v1
v1
v2
v2
v5
o2
o2
o2
o2
o2
n9.11
v1
v1
v3
v5
v5
o2
o2
o2
o2
o2
n1.07
v1
v1
v3
v6
v6
o2
o2
o2
o2
o2
n9.71
v1
v1
v4
v5
v6
o2
o2
o2
o2
o2
n8.61
v1
v2
v2
v3
v3
o2
o2
o2
o2
o2
n6.31
v1
v2
v2
v6
v7
o2
o2
o2
o2
o2
n9
v1
v2
v3
v3
v3
o2
o2
o2
o2
o2
n8.85
v1
v2
v4
v5
v6
o2
o2
o2
o2
o2
n6.3
v1
v2
v5
v7
v7
o2
o2
o2
o2
o2
n6.01
v1
v2
v6
v7
v7
o2
o2
o2
o2
o2
n9.11
v1
v3
v3
v4
v6
o2
o2
o2
o2
o2
n9.63
v1
v3
v5
v5
v6
o2
o2
o2
o2
o2
n2.81
v1
v3
v5
v7
v7
o2
o2
o2
o2
o2
n6.98
v1
v4
v4
v4
v5
o2
o2
o2
o2
o2
n2.23
v1
v4
v4
v4
v7
o2
o2
o2
o2
o2
n7.33
v1
v4
v5
v5
v5
o2
o2
o2
o2
o2
n3.88
v1
v5
v5
v5
v7
o2
o2
o2
o2
o2
n4.64
v1
v5
v6
v6
v7
o2
o2
o2
o2
o2
n1.78
v1
v6
v7
v7
v7
o2
o2
o2
o2
o2
n2.59
v2
v2
v3
v4
v5
o2
o2
o2
o2
o2
n6.01
v2
v2
v3
v5
v7
o2
o2
o2
o2
o2
n3.82
v2
v2
v3
v7
v7
o2
o2
o2
o2
o2
n7.94
v2
v2
v4
v4
v4
o2
o2
o2
o2
o2
n9.74
v2
v2
v4
v6
v7
o16
o2
o2
o2
o2
o2
n1.33
v2
v3
v3
v3
v6
o2
o2
o2
o2
o2
n2.62
v2
v3
v3
v4
v4
o2
o2
o2
o2
o2
n3.22
v2
v3
v4
v5
v6
o2
o2
o2
o2
o2
n6.36
v2
v3
v4
v7
v7
o2
o2
o2
o2
o2
n3.78
v2
v3
v5
v7
v7
o2
o2
o2
o2
o2
n7.67
v2
v4
v4
v4
v7
o2
o2
o2
o2
o2
n9.18
v2
v4
v4
v5
v5
o16
o2
o2
o2
o2
o2
n4.1
v2
v5
v6
v6
v7
o2
o2
o2
o2
o2
n6.43
v2
v6
v7
v7
v7
o2
o2
o2
o2
o2
n0.54
v2
v7
v7
v7
v7
o2
o2
o2
o2
o2
n4.45
v3
v4
v4
v4
v7
o2
o2
o2
o2
o2
n0.76
v3
v4
v4
v5
v6
o2
o2
o2
o2
o2
n0.16
v3
v6
v6
v6
v7
o2
o2
o2
o2
o2
n5.47
v3
v6
v6
v7
v7
o2
o2
o2
o2
o2
n4
v4
v4
v4
v4
v4
o2
o2
o2
o2
o2
n3.6
v4
v5
v5
v5
v7
o16
o2
o2
o2
o2
o2
n3.53
v4
v5
v5
v6
v6
o2
o2
o2
o2
o2
n8.25
v4
v6
v6
v6
v7
o2
o2
o2
o2
o2
n9.63
v4
v6
v6
v7
v7
C4
n0
C5
n0
C6
n0
O0 0
o54
128
o2
o2
n4.49
v3
v3
o2
o2
n7.08
v4
v7
o2
o2
o2
n8.66
v0
v4
v4
o2
o2
o2
n9.49
v0
v4
v7
o2
o2
o2
n6.83
v0
v6
v7
o2
o2
o2
n1.58
v1
v1
v2
o2
o2
o2
n5.78
v1
v1
v3
o2
o2
o2
n5.31
v1
v3
v5
o2
o2
o2
n2.47
v2
v2
v7
o16
o2
o2
o2
n6.36
v2
v5
v6
o2
o2
o2
n5.46
v3
v4
v7
o2
o2
o2
n9.31
v4
v4
v4
o2
o2
o2
n4.28
v6
v6
v6
o2
o2
o2
o2
n4.76
v0
v0
v1
v6
o16
o2
o2
o2
o2
n5.96
v0
v0
v2
v6
o2
o2
o2
o2
n9.9
v0
v0
v3
v7
o2
o2
o2
o2
n2.5
v0
v1
v2
v3
o2
o2
o2
o2
n9.08
v0
v1
v2
v6
o2
o2
o2
o2
n8.69
v0
v2
v2
v4
o2
o2
o2
o2
n5.98
v0
v2
v3
v5
o2
o2
o2
o2
n4.02
v0
v2
v3
v6
o2
o2
o2
o2
n3.9
v0
v3
v3
v5
o16
o2
o2
o2
o2
n8.03
v0
v3
v3
v6
o2
o2
o2
o2
n5.82
v0
v3
v5
v7
o2
o2
o2
o2
n2.88
v0
v4
v6
v6
o2
o2
o2
o2
n0.64
v0
v4
v6
v7
o2
o2
o2
o2
n2.49
v0
v5
v5
v7
o2
o2
o2
o2
n7.32
v1
v1
v2
v5
o16
o2
o2
o2
o2
n2.03
v1
v1
v2
v7
o2
o2
o2
o2
n3.39
v1
v1
v5
v6
o2
o2
o2
o2
n7.08
v1
v2
v2
v4
o2
o2
o2
o2
n9.41
v1
v2
v4
v5
o2
o2
o2
o2
n6.32
v1
v3
v3
v4
o2
o2
o2
o2
n5.97
v1
v3
v4
v6
o2
o2
o2
o2
n6.94
v1
v3
v6
v7
o2
o2
o2
o2
n4.76
v1
v4
v5
v5
o2
o2
o2
o2
n6.78
v1
v5
v5
v6
o2
o2
o2
o2
n0.27
v2
v2
v2
v7
o2
o2
o2
o2
n2.26
v2
v2
v3
v3
o2
o2
o2
o2
n3.74
v2
v3
v3
v5
o2
o2
o2
o2
n6.15
v2
v3
v5
v7
o16
o2
o2
o2
o2
n5.82
v2
v3
v6
v7
o2
o2
o2
o2
n4.35
v3
v3
v3
v3
o2
o2
o2
o2
n9.6
v3
v4
v4
v4
o2
o2
o2
o2
n5.56
v3
v4
v4
v6
o2
o2
o2
o2
n0.55
v3
v7
v7
v7
o2
o2
o2
o2
n3.07
v4
v4
v4
v4
o2
o2
o2
o2
n4.89
v4
v4
v4
v5
o2
o2
o2
o2
n2.62
v4
v4
v5
v6
o2
o2
o2
o2
n2.97
v4
v5
v5
v5
o2
o2
o2
o2
n5.46
v4
v5
v6
v6
o2
o2
o2
o2
n9.23
v4
v7
v7
v7
o2
o2
o2
o2
n0.63
v5
v6
v6
v6
o2
o2
o2
o2
o2
n5.38
v0
v0
v0
v0
v1
o2
o2
o2
o2
o2
n5.59
v0
v0
v0
v6
v7
o2
o2
o2
o2
o2
n8.17
v0
v0
v1
v4
v4
o2
o2
o2
o2
o2
n9.12
v0
v0
v1
v4
v7
o2
o2
o2
o2
o2
n8.52
v0
v0
v1
v5
v7
o2
o2
o2
o2
o2
n5.73
v0
v0
v1
v7
v7
o2
o2
o2
o2
o2
n3.44
v0
v0
v2
v2
v2
o2
o2
o2
o2
o2
n5.56
v0
v0
v2
v3
v3
o2
o2
o2
o2
o2
n7.35
v0
v0
v2
v3
v7
o2
o2
o2
o2
o2
n8.72
v0
v0
v4
v5
v7
o2
o2
o2
o2
o2
n4.37
v0
v0
v4
v6
v6
o2
o2
o2
o2
o2
n8.42
v0
v1
v1
v2
v5
o2
o2
o2
o2
o2
n8.12
v0
v1
v1
v4
v6
o2
o2
o2
o2
o2
n1.59
v0
v1
v1
v4
v7
o2
o2
o2
o2
o2
n0.6
v0
v1
v2
v3
v4
o2
o2
o2
o2
o2
n1.4
v0
v1
v2
v6
v6
o2
o2
o2
o2
o2
n6.71
v0
v1
v2
v6
v7
o2
o2
o2
o2
o2
n0.46
v0
v1
v4
v4
v5
o2
o2
o2
o2
o2
n6.02
v0
v2
v2
v2
v5
o2
o2
o2
o2
o2
n8.95
v0
v2
v3
v3
v5
o2
o2
o2
o2
o2
n8.2
v0
v2
v4
v4
v4
o2
o2
o2
o2
o2
n6.66
v0
v2
v4
v4
v7
o16
o2
o2
o2
o2
o2
n3.96
v0
v3
v4
v4
v6
o2
o2
o2
o2
o2
n3.01
v0
v3
v6
v6
v7
o16
o2
o2
o2
o2
o2
n7.67
v0
v4
v4
v4
v5
o2
o2
o2
o2
o2
n4.12
v0
v4
v4
v4
v6
o2
o2
o2
o2
o2
n3.64
v1
v1
v1
v1
v1
o2
o2
o2
o2
o2
n1.03
v1
v1
v1
v1
v5
o16
o2
o2
o2
o2
o2
n2.27
v1
v1
v1
v1
v6
o2
o2
o2
o2
o2
n8.02
v1
v1
v1
v2
v2
o2
o2
o2
o2
o2
n7.87
v1
v1
v1
v3
v6
o2
o2
o2
o2
o2
n5.24
v1
v1
v1
v3
v7
o2
o2
o2
o2
o2
n4.58
v1
v1
v2
v2
v5
o2
o2
o2
o2
o2
n4.62
v1
v1
v3
v5
v5
o2
o2
o2
o2
o2
n2
v1
v1
v3
v6
v6
o2
o2
o2
o2
o2
n3.12
v1
v1
v4
v5
v6
o16
o2
o2
o2
o2
o2
n7.12
v1
v2
v2
v3
v3
o16
o2
o2
o2
o2
o2
n2.45
v1
v2
v2
v6
v7
o2
o2
o2
o2
o2
n4.07
v1
v2
v3
v3
v3
o2
o2
o2
o2
o2
n9.21
v1
v2
v4
v5
v6
o2
o2
o2
o2
o2
n8.23
v1
v2
v5
v7
v7
o2
o2
o2
o2
o2
n4.67
v1
v2
v6
v7
v7
o2
o2
o2
o2
o2
n6.33
v1
v3
v3
v4
v6
o2
o2
o2
o2
o2
n8.08
v1
v3
v5
v5
v6
o2
o2
o2
o2
o2
n9.09
v1
v3
v5
v7
v7
o2
o2
o2
o2
o2
n2.71
v1
v4
v4
v4
v5
o2
o2
o2
o2
o2
n7.89
v1
v4
v4
v4
v7
o2
o2
o2
o2
o2
n8.59
v1
v4
v5
v5
v5
o2
o2
o2
o2
o2
n2.09
v1
v5
v5
v5
v7
o2
o2
o2
o2
o2
n1.11
v1
v5
v6
v6
v7
o2
o2
o2
o2
o2
n8.64
v1
v6
v7
v7
v7
o2
o2
o2
o2
o2
n9.41
v2
v2
v3
v4
v5
o2
o2
o2
o2
o2
n0.34
v2
v2
v3
v5
v7
o2
o2
o2
o2
o2
n3.74
v2
v2
v3
v7
v7
o2
o2
o2
o2
o2
n4.52
v2
v2
v4
v4
v4
o16
o2
o2
o2
o2
o2
n5.79
v2
v2
v4
v6
v7
o2
o2
o2
o2
o2
n8.55
v2
v3
v3
v3
v6
o2
o2
o2
o2
o2
n1.09
v2
v3
v3
v4
v4
o16
o2
o2
o2
o2
o2
n3.89
v2
v3
v4
v5
v6
o2
o2
o2
o2
o2
n7.52
v2
v3
v4
v7
v7
o2
o2
o2
o2
o2
n5.06
v2
v3
v5
v7
v7
o2
o2
o2
o2
o2
n8.96
v2
v4
v4
v4
v7
o2
o2
o2
o2
o2
n5.28
v2
v4
v4
v5
v5
o2
o2
o2
o2
o2
n8.24
v2
v5
v6
v6
v7
o2
o2
o2
o2
o2
n5.18
v2
v6
v7
v7
v7
o2
o2
o2
o2
o2
n8.33
v2
v7
v7
v7
v7
o2
o2
o2
o2
o2
n6.29
v3
v4
v4
v4
v7
o2
o2
o2
o2
o2
n5.93
v3
v4
v4
v5
v6
o2
o2
o2
o2
o2
n5.75
v3
v6
v6
v6
v7
o2
o2
o2
o2
o2
n6.48
v3
v6
v6
v7
v7
o2
o2
o2
o2
o2
n3.84
v4
v4
v4
v4
v4
o2
o2
o2
o2
o2
n4.66
v4
v5
v5
v5
v7
o2
o2
o2
o2
o2
n0.97
v4
v5
v5
v6
v6
o2
o2
o2
o2
o2
n9.4
v4
v6
v6
v6
v7
o2
o2
o2
o2
o2
n5.56
v4
v6
v6
v7
v7
k7
6
12
18
23
29
34
41
J0 8
0 -5.88
1 4.95
2 5.07
3 -3.58
4 8.73
5 6.68
6 2.38
7 8.55
J1 8
0 7.29
1 4.23
2 4.79
3 9.71
4 5.32
5 7.33
6 9.41
7 7.67
J2 8
0 -6.1
1 0.37
2 7.71
3 7.33
4 7.11
5 5.37
6 6.89
7 4.32
J3 8
0 7.38
1 -3.56
2 5.11
3 7.49
4 0.48
5 9.52
6 3.32
7 0.93
J4 4
1 1.39
2 -9.94
6 8.4
7 4.87
J5 4
0 4.04
4 0.11
6 8.06
7 0.79
J6 8
0 0.64
1 0.94
2 8.4
3 6.87
4 4.4
5 5.89
6 9.82
7 -5.06
G0 8
0 8.39
1 9.15
2 3.86
3 6.08
4 -1.96
5 6.4
6 0.26
7 6.19
